% demand
num_movements = 23;
loading_factor = [1700, 1200, 1150, 1600, 1200, 1650, 850, 1500, 900, 1500, 1650, 1450, 1250, 1100, 1800, 1100, 1700, 1550, 1300, 1600, 1200, 1750, 900];
pickup_time = [0, 1, 1, 3, 3, 3, 3, 4, 4, 4, 4, 4, 5, 7, 7, 7, 8, 10, 10, 10, 10, 11, 11];
delivery_time = [4, 3, 2, 4, 4, 4, 4, 5, 5, 5, 5, 5, 6, 8, 10, 8, 9, 13, 11, 13, 13, 13, 13];

% transporter definition
total_capacity = 7000;
num_decks = 3;
capacity = [3000, 1000, 3000];

% ways out of decks
num_ways_out = 1;
paths_out = array3d(decks, ways_out, decks, [
% ways out of deck d1
2, 3, 0, 

% ways out of deck d2
3, 0, 0, 

% ways out of deck d3
0, 0, 0,	

]);

